NAME : ManP-50-2.11199730.tour
COMMENT : Length = 11199730
COMMENT : Found by LKH [Keld Helsgaun] Thu Nov 29 13:06:55 2018
TYPE : TOUR
DIMENSION : 55
TOUR_SECTION
1
53
34
23
24
25
46
38
16
22
27
9
8
6
2
3
40
18
33
15
52
29
30
13
10
41
17
20
44
36
37
12
4
21
42
50
7
54
39
48
47
31
49
5
51
35
43
45
19
28
11
26
14
32
55
-1
EOF
